problems/csplib-prob013/ProgressivePartyProblem-models/compact/O2/lingeling/model_1_1-Ian05-solution000001.solution
language Essence 1.3

letting hosts be {1, 4, 5, 8, 9}
letting sched be
        {function(1 --> 1, 2 --> 1, 3 --> 9, 4 --> 4, 5 --> 5, 6 --> 4, 7 --> 8, 8 --> 8, 9 --> 9),
         function(1 --> 1, 2 --> 4, 3 --> 8, 4 --> 4, 5 --> 5, 6 --> 1, 7 --> 5, 8 --> 8, 9 --> 9),
         function(1 --> 1, 2 --> 5, 3 --> 1, 4 --> 4, 5 --> 5, 6 --> 8, 7 --> 9, 8 --> 8, 9 --> 9),
         function(1 --> 1, 2 --> 8, 3 --> 5, 4 --> 4, 5 --> 5, 6 --> 5, 7 --> 1, 8 --> 8, 9 --> 9),
         function(1 --> 1, 2 --> 9, 3 --> 4, 4 --> 4, 5 --> 5, 6 --> 9, 7 --> 4, 8 --> 8, 9 --> 9)}
